p wcnf 100 200 201 
1 -20 30 0 
1 -28 71 0 
1 37 -45 0 
1 -37 -8 0 
1 47 2 0 
1 -87 55 0 
1 -68 -75 0 
1 93 38 0 
1 -30 22 0 
1 52 98 0 
1 27 19 0 
1 14 -89 0 
1 41 -75 0 
1 30 85 0 
1 64 -100 0 
1 24 -39 0 
1 90 66 0 
1 52 84 0 
1 35 20 0 
1 -8 -30 0 
1 32 -93 0 
1 -23 -8 0 
1 -40 84 0 
1 -42 61 0 
1 5 -86 0 
1 39 -22 0 
1 -5 39 0 
1 -20 77 0 
1 -16 -35 0 
1 25 67 0 
1 79 31 0 
1 12 -81 0 
1 79 24 0 
1 100 27 0 
1 -41 -26 0 
1 -50 -47 0 
1 11 -88 0 
1 61 -55 0 
1 30 -15 0 
1 69 -66 0 
1 -84 3 0 
1 79 -18 0 
1 37 38 0 
1 84 -49 0 
1 75 73 0 
1 -87 -94 0 
1 -73 31 0 
1 52 -79 0 
1 -41 -75 0 
1 44 -94 0 
1 -33 51 0 
1 -99 -87 0 
1 -39 -91 0 
1 -33 47 0 
1 -1 -24 0 
1 -84 8 0 
1 38 -84 0 
1 30 76 0 
1 52 74 0 
1 13 51 0 
1 99 -37 0 
1 7 -3 0 
1 -32 -68 0 
1 75 -93 0 
1 54 25 0 
1 -7 -14 0 
1 -92 41 0 
1 60 -39 0 
1 74 -58 0 
1 39 -87 0 
1 -10 -52 0 
1 -36 -88 0 
1 -38 93 0 
1 76 -13 0 
1 -85 -69 0 
1 85 -15 0 
1 -18 71 0 
1 -90 -10 0 
1 -33 71 0 
1 -5 8 0 
1 92 -15 0 
1 -32 -78 0 
1 98 -18 0 
1 25 -30 0 
1 72 1 0 
1 -1 -82 0 
1 46 79 0 
1 -44 -98 0 
1 -43 -79 0 
1 -7 92 0 
1 9 -97 0 
1 76 -27 0 
1 45 -23 0 
1 -97 32 0 
1 16 -5 0 
1 -45 42 0 
1 -56 -21 0 
1 90 -16 0 
1 83 61 0 
1 61 -92 0 
1 100 -83 0 
1 24 -28 0 
1 11 1 0 
1 -59 62 0 
1 -45 60 0 
1 -60 -91 0 
1 8 29 0 
1 -36 1 0 
1 29 -77 0 
1 -97 11 0 
1 65 60 0 
1 83 -44 0 
1 25 -79 0 
1 -52 -100 0 
1 49 51 0 
1 -45 2 0 
1 -1 -28 0 
1 -51 -83 0 
1 -40 78 0 
1 2 -7 0 
1 46 -50 0 
1 -44 -4 0 
1 -35 -73 0 
1 32 -92 0 
1 -59 91 0 
1 -66 23 0 
1 -67 -66 0 
1 -29 -88 0 
1 90 83 0 
1 78 70 0 
1 78 34 0 
1 66 -83 0 
1 -91 -100 0 
1 57 -38 0 
1 -26 35 0 
1 75 -35 0 
1 95 18 0 
1 -4 34 0 
1 56 -95 0 
1 49 57 0 
1 30 -54 0 
1 43 -17 0 
1 -95 89 0 
1 10 -8 0 
1 -76 6 0 
1 -37 -61 0 
1 -48 -53 0 
1 -77 56 0 
1 -53 73 0 
1 -5 34 0 
1 -44 32 0 
1 -69 -25 0 
1 -36 -65 0 
1 -50 -59 0 
1 40 -80 0 
1 -100 -7 0 
1 64 95 0 
1 84 27 0 
1 9 -22 0 
1 36 -18 0 
1 14 58 0 
1 37 -48 0 
1 63 -77 0 
1 -62 -14 0 
1 -54 52 0 
1 57 -55 0 
1 -68 96 0 
1 -35 1 0 
1 -83 93 0 
1 51 30 0 
1 72 9 0 
1 -41 45 0 
1 95 62 0 
1 20 -68 0 
1 2 -17 0 
1 -33 13 0 
1 -33 26 0 
1 73 70 0 
1 69 -25 0 
1 81 -99 0 
1 -91 76 0 
1 95 -97 0 
1 25 -69 0 
1 -85 10 0 
1 43 -18 0 
1 -47 35 0 
1 39 24 0 
1 63 -69 0 
1 -61 68 0 
1 -18 -63 0 
1 66 -69 0 
1 -73 -6 0 
1 96 -100 0 
1 -17 65 0 
1 10 -12 0 
1 -94 -5 0 
1 66 -99 0 
1 53 64 0 
1 -68 -46 0 
1 -79 -99 0 
